50
    1   208   204
    2   469   448
    3   698   654
    4   867   863
    5   896   928
    6   330   294
    7   875   801
    8   620   608
    9   731   769
   10   144    70
   11    18     8
   12   230   183
   13   628   696
   14   706   616
   15   591   561
   16   868   801
   17   535   481
   18   324   396
   19  1060   997
   20   462   458
   21   648   737
   22   867   844
   23   571   656
   24   331   331
   25   447   465
   26   109   132
   27    73    70
   28   573   636
   29   794   810
   30   259   171
   31   431   398
   32   880   800
   33   279   240
   34   601   617
   35   659   744
   36    75   109
   37   493   448
   38   606   553
   39   203   160
   40    93    59
   41   444   451
   42   900   902
   43   816   730
   44   535   634
   45   823   731
   46    75    47
   47   318   358
   48   496   526
   49   629   659
   50   727   668
8507
